\ENCODING=ISO-8859-1
\Problem name: 

Minimize
 obj: 1000000 x(0,0) + x(0,1) + 3 x(0,2) + 3 x(0,3) + 2 x(0,4) + 3 x(0,5)
      + x(0,6) + x(0,7) + x(0,8) + 2 x(0,9) + x(1,0) + 100000 x(1,1) + x(1,2)
      + 2 x(1,3) + x(1,4) + x(1,5) + 2 x(1,6) + 4 x(1,7) + 4 x(1,8) + 2 x(1,9)
      + x(2,0) + 2 x(2,1) + 1000000 x(2,2) + x(2,3) + 2 x(2,4) + x(2,5)
      + x(2,6) + x(2,7) + x(2,8) + x(2,9) + x(3,0) + 2 x(3,1) + x(3,2)
      + 10000000 x(3,3) + x(3,4) + 2 x(3,5) + x(3,6) + x(3,7) + x(3,8) + x(3,9)
      + x(4,0) + 2 x(4,1) + x(4,2) + x(4,3) + 10000000 x(4,4) + x(4,5) + x(4,6)
      + x(4,7) + 2 x(4,8) + x(4,9) + x(5,0) + 2 x(5,1) + x(5,2) + x(5,3)
      + 2 x(5,4) + 1000000 x(5,5) + x(5,6) + x(5,7) + x(5,8) + x(5,9) + x(6,0)
      + 2 x(6,1) + 3 x(6,2) + 4 x(6,3) + 2 x(6,4) + x(6,5) + 1000000 x(6,6)
      + x(6,7) + 2 x(6,8) + x(6,9) + 3 x(7,0) + 2 x(7,1) + 3 x(7,2) + 4 x(7,3)
      + 2 x(7,4) + x(7,5) + 3 x(7,6) + 100000000 x(7,7) + x(7,8) + 3 x(7,9)
      + x(8,0) + x(8,1) + x(8,2) + x(8,3) + 2 x(8,4) + 3 x(8,5) + 4 x(8,6)
      + 5 x(8,7) + 1000000000 x(8,8) + x(8,9) + x(9,0) + 4 x(9,1) + 3 x(9,2)
      + 2 x(9,3) + 3 x(9,4) + 4 x(9,5) + 3 x(9,6) + 2 x(9,7) + x(9,8)
      + 1000000000 x(9,9) + 0 u(0)
Subject To
 c1:  x(0,0) + x(0,1) + x(0,2) + x(0,3) + x(0,4) + x(0,5) + x(0,6) + x(0,7)
      + x(0,8) + x(0,9)  = 1
 c2:  x(1,0) + x(1,1) + x(1,2) + x(1,3) + x(1,4) + x(1,5) + x(1,6) + x(1,7)
      + x(1,8) + x(1,9)  = 1
 c3:  x(2,0) + x(2,1) + x(2,2) + x(2,3) + x(2,4) + x(2,5) + x(2,6) + x(2,7)
      + x(2,8) + x(2,9)  = 1
 c4:  x(3,0) + x(3,1) + x(3,2) + x(3,3) + x(3,4) + x(3,5) + x(3,6) + x(3,7)
      + x(3,8) + x(3,9)  = 1
 c5:  x(4,0) + x(4,1) + x(4,2) + x(4,3) + x(4,4) + x(4,5) + x(4,6) + x(4,7)
      + x(4,8) + x(4,9)  = 1
 c6:  x(5,0) + x(5,1) + x(5,2) + x(5,3) + x(5,4) + x(5,5) + x(5,6) + x(5,7)
      + x(5,8) + x(5,9)  = 1
 c7:  x(6,0) + x(6,1) + x(6,2) + x(6,3) + x(6,4) + x(6,5) + x(6,6) + x(6,7)
      + x(6,8) + x(6,9)  = 1
 c8:  x(7,0) + x(7,1) + x(7,2) + x(7,3) + x(7,4) + x(7,5) + x(7,6) + x(7,7)
      + x(7,8) + x(7,9)  = 1
 c9:  x(8,0) + x(8,1) + x(8,2) + x(8,3) + x(8,4) + x(8,5) + x(8,6) + x(8,7)
      + x(8,8) + x(8,9)  = 1
 c10: x(9,0) + x(9,1) + x(9,2) + x(9,3) + x(9,4) + x(9,5) + x(9,6) + x(9,7)
      + x(9,8) + x(9,9)  = 1
 c11: x(0,0) + x(1,0) + x(2,0) + x(3,0) + x(4,0) + x(5,0) + x(6,0) + x(7,0)
      + x(8,0) + x(9,0)  = 1
 c12: x(0,1) + x(1,1) + x(2,1) + x(3,1) + x(4,1) + x(5,1) + x(6,1) + x(7,1)
      + x(8,1) + x(9,1)  = 1
 c13: x(0,2) + x(1,2) + x(2,2) + x(3,2) + x(4,2) + x(5,2) + x(6,2) + x(7,2)
      + x(8,2) + x(9,2)  = 1
 c14: x(0,3) + x(1,3) + x(2,3) + x(3,3) + x(4,3) + x(5,3) + x(6,3) + x(7,3)
      + x(8,3) + x(9,3)  = 1
 c15: x(0,4) + x(1,4) + x(2,4) + x(3,4) + x(4,4) + x(5,4) + x(6,4) + x(7,4)
      + x(8,4) + x(9,4)  = 1
 c16: x(0,5) + x(1,5) + x(2,5) + x(3,5) + x(4,5) + x(5,5) + x(6,5) + x(7,5)
      + x(8,5) + x(9,5)  = 1
 c17: x(0,6) + x(1,6) + x(2,6) + x(3,6) + x(4,6) + x(5,6) + x(6,6) + x(7,6)
      + x(8,6) + x(9,6)  = 1
 c18: x(0,7) + x(1,7) + x(2,7) + x(3,7) + x(4,7) + x(5,7) + x(6,7) + x(7,7)
      + x(8,7) + x(9,7)  = 1
 c19: x(0,8) + x(1,8) + x(2,8) + x(3,8) + x(4,8) + x(5,8) + x(6,8) + x(7,8)
      + x(8,8) + x(9,8)  = 1
 c20: x(0,9) + x(1,9) + x(2,9) + x(3,9) + x(4,9) + x(5,9) + x(6,9) + x(7,9)
      + x(8,9) + x(9,9)  = 1
 c21: 9 x(1,2) + u(1) - u(2) <= 8
 c22: 9 x(1,3) + u(1) - u(3) <= 8
 c23: 9 x(1,4) + u(1) - u(4) <= 8
 c24: 9 x(1,5) + u(1) - u(5) <= 8
 c25: 9 x(1,6) + u(1) - u(6) <= 8
 c26: 9 x(1,7) + u(1) - u(7) <= 8
 c27: 9 x(1,8) + u(1) - u(8) <= 8
 c28: 9 x(1,9) + u(1) - u(9) <= 8
 c29: 9 x(2,1) - u(1) + u(2) <= 8
 c30: 9 x(2,3) + u(2) - u(3) <= 8
 c31: 9 x(2,4) + u(2) - u(4) <= 8
 c32: 9 x(2,5) + u(2) - u(5) <= 8
 c33: 9 x(2,6) + u(2) - u(6) <= 8
 c34: 9 x(2,7) + u(2) - u(7) <= 8
 c35: 9 x(2,8) + u(2) - u(8) <= 8
 c36: 9 x(2,9) + u(2) - u(9) <= 8
 c37: 9 x(3,1) - u(1) + u(3) <= 8
 c38: 9 x(3,2) - u(2) + u(3) <= 8
 c39: 9 x(3,4) + u(3) - u(4) <= 8
 c40: 9 x(3,5) + u(3) - u(5) <= 8
 c41: 9 x(3,6) + u(3) - u(6) <= 8
 c42: 9 x(3,7) + u(3) - u(7) <= 8
 c43: 9 x(3,8) + u(3) - u(8) <= 8
 c44: 9 x(3,9) + u(3) - u(9) <= 8
 c45: 9 x(4,1) - u(1) + u(4) <= 8
 c46: 9 x(4,2) - u(2) + u(4) <= 8
 c47: 9 x(4,3) - u(3) + u(4) <= 8
 c48: 9 x(4,5) + u(4) - u(5) <= 8
 c49: 9 x(4,6) + u(4) - u(6) <= 8
 c50: 9 x(4,7) + u(4) - u(7) <= 8
 c51: 9 x(4,8) + u(4) - u(8) <= 8
 c52: 9 x(4,9) + u(4) - u(9) <= 8
 c53: 9 x(5,1) - u(1) + u(5) <= 8
 c54: 9 x(5,2) - u(2) + u(5) <= 8
 c55: 9 x(5,3) - u(3) + u(5) <= 8
 c56: 9 x(5,4) - u(4) + u(5) <= 8
 c57: 9 x(5,6) + u(5) - u(6) <= 8
 c58: 9 x(5,7) + u(5) - u(7) <= 8
 c59: 9 x(5,8) + u(5) - u(8) <= 8
 c60: 9 x(5,9) + u(5) - u(9) <= 8
 c61: 9 x(6,1) - u(1) + u(6) <= 8
 c62: 9 x(6,2) - u(2) + u(6) <= 8
 c63: 9 x(6,3) - u(3) + u(6) <= 8
 c64: 9 x(6,4) - u(4) + u(6) <= 8
 c65: 9 x(6,5) - u(5) + u(6) <= 8
 c66: 9 x(6,7) + u(6) - u(7) <= 8
 c67: 9 x(6,8) + u(6) - u(8) <= 8
 c68: 9 x(6,9) + u(6) - u(9) <= 8
 c69: 9 x(7,1) - u(1) + u(7) <= 8
 c70: 9 x(7,2) - u(2) + u(7) <= 8
 c71: 9 x(7,3) - u(3) + u(7) <= 8
 c72: 9 x(7,4) - u(4) + u(7) <= 8
 c73: 9 x(7,5) - u(5) + u(7) <= 8
 c74: 9 x(7,6) - u(6) + u(7) <= 8
 c75: 9 x(7,8) + u(7) - u(8) <= 8
 c76: 9 x(7,9) + u(7) - u(9) <= 8
 c77: 9 x(8,1) - u(1) + u(8) <= 8
 c78: 9 x(8,2) - u(2) + u(8) <= 8
 c79: 9 x(8,3) - u(3) + u(8) <= 8
 c80: 9 x(8,4) - u(4) + u(8) <= 8
 c81: 9 x(8,5) - u(5) + u(8) <= 8
 c82: 9 x(8,6) - u(6) + u(8) <= 8
 c83: 9 x(8,7) - u(7) + u(8) <= 8
 c84: 9 x(8,9) + u(8) - u(9) <= 8
 c85: 9 x(9,1) - u(1) + u(9) <= 8
 c86: 9 x(9,2) - u(2) + u(9) <= 8
 c87: 9 x(9,3) - u(3) + u(9) <= 8
 c88: 9 x(9,4) - u(4) + u(9) <= 8
 c89: 9 x(9,5) - u(5) + u(9) <= 8
 c90: 9 x(9,6) - u(6) + u(9) <= 8
 c91: 9 x(9,7) - u(7) + u(9) <= 8
 c92: 9 x(9,8) - u(8) + u(9) <= 8
Bounds
 0 <= x(0,0) <= 1
 0 <= x(0,1) <= 1
 0 <= x(0,2) <= 1
 0 <= x(0,3) <= 1
 0 <= x(0,4) <= 1
 0 <= x(0,5) <= 1
 0 <= x(0,6) <= 1
 0 <= x(0,7) <= 1
 0 <= x(0,8) <= 1
 0 <= x(0,9) <= 1
 0 <= x(1,0) <= 1
 0 <= x(1,1) <= 1
 0 <= x(1,2) <= 1
 0 <= x(1,3) <= 1
 0 <= x(1,4) <= 1
 0 <= x(1,5) <= 1
 0 <= x(1,6) <= 1
 0 <= x(1,7) <= 1
 0 <= x(1,8) <= 1
 0 <= x(1,9) <= 1
 0 <= x(2,0) <= 1
 0 <= x(2,1) <= 1
 0 <= x(2,2) <= 1
 0 <= x(2,3) <= 1
 0 <= x(2,4) <= 1
 0 <= x(2,5) <= 1
 0 <= x(2,6) <= 1
 0 <= x(2,7) <= 1
 0 <= x(2,8) <= 1
 0 <= x(2,9) <= 1
 0 <= x(3,0) <= 1
 0 <= x(3,1) <= 1
 0 <= x(3,2) <= 1
 0 <= x(3,3) <= 1
 0 <= x(3,4) <= 1
 0 <= x(3,5) <= 1
 0 <= x(3,6) <= 1
 0 <= x(3,7) <= 1
 0 <= x(3,8) <= 1
 0 <= x(3,9) <= 1
 0 <= x(4,0) <= 1
 0 <= x(4,1) <= 1
 0 <= x(4,2) <= 1
 0 <= x(4,3) <= 1
 0 <= x(4,4) <= 1
 0 <= x(4,5) <= 1
 0 <= x(4,6) <= 1
 0 <= x(4,7) <= 1
 0 <= x(4,8) <= 1
 0 <= x(4,9) <= 1
 0 <= x(5,0) <= 1
 0 <= x(5,1) <= 1
 0 <= x(5,2) <= 1
 0 <= x(5,3) <= 1
 0 <= x(5,4) <= 1
 0 <= x(5,5) <= 1
 0 <= x(5,6) <= 1
 0 <= x(5,7) <= 1
 0 <= x(5,8) <= 1
 0 <= x(5,9) <= 1
 0 <= x(6,0) <= 1
 0 <= x(6,1) <= 1
 0 <= x(6,2) <= 1
 0 <= x(6,3) <= 1
 0 <= x(6,4) <= 1
 0 <= x(6,5) <= 1
 0 <= x(6,6) <= 1
 0 <= x(6,7) <= 1
 0 <= x(6,8) <= 1
 0 <= x(6,9) <= 1
 0 <= x(7,0) <= 1
 0 <= x(7,1) <= 1
 0 <= x(7,2) <= 1
 0 <= x(7,3) <= 1
 0 <= x(7,4) <= 1
 0 <= x(7,5) <= 1
 0 <= x(7,6) <= 1
 0 <= x(7,7) <= 1
 0 <= x(7,8) <= 1
 0 <= x(7,9) <= 1
 0 <= x(8,0) <= 1
 0 <= x(8,1) <= 1
 0 <= x(8,2) <= 1
 0 <= x(8,3) <= 1
 0 <= x(8,4) <= 1
 0 <= x(8,5) <= 1
 0 <= x(8,6) <= 1
 0 <= x(8,7) <= 1
 0 <= x(8,8) <= 1
 0 <= x(8,9) <= 1
 0 <= x(9,0) <= 1
 0 <= x(9,1) <= 1
 0 <= x(9,2) <= 1
 0 <= x(9,3) <= 1
 0 <= x(9,4) <= 1
 0 <= x(9,5) <= 1
 0 <= x(9,6) <= 1
 0 <= x(9,7) <= 1
 0 <= x(9,8) <= 1
 0 <= x(9,9) <= 1
 1 <= u(0) <= 9
 1 <= u(1) <= 9
 1 <= u(2) <= 9
 1 <= u(3) <= 9
 1 <= u(4) <= 9
 1 <= u(5) <= 9
 1 <= u(6) <= 9
 1 <= u(7) <= 9
 1 <= u(8) <= 9
 1 <= u(9) <= 9
Binaries
 x(0,0)  x(0,1)  x(0,2)  x(0,3)  x(0,4)  x(0,5)  x(0,6)  x(0,7)  x(0,8) 
 x(0,9)  x(1,0)  x(1,1)  x(1,2)  x(1,3)  x(1,4)  x(1,5)  x(1,6)  x(1,7) 
 x(1,8)  x(1,9)  x(2,0)  x(2,1)  x(2,2)  x(2,3)  x(2,4)  x(2,5)  x(2,6) 
 x(2,7)  x(2,8)  x(2,9)  x(3,0)  x(3,1)  x(3,2)  x(3,3)  x(3,4)  x(3,5) 
 x(3,6)  x(3,7)  x(3,8)  x(3,9)  x(4,0)  x(4,1)  x(4,2)  x(4,3)  x(4,4) 
 x(4,5)  x(4,6)  x(4,7)  x(4,8)  x(4,9)  x(5,0)  x(5,1)  x(5,2)  x(5,3) 
 x(5,4)  x(5,5)  x(5,6)  x(5,7)  x(5,8)  x(5,9)  x(6,0)  x(6,1)  x(6,2) 
 x(6,3)  x(6,4)  x(6,5)  x(6,6)  x(6,7)  x(6,8)  x(6,9)  x(7,0)  x(7,1) 
 x(7,2)  x(7,3)  x(7,4)  x(7,5)  x(7,6)  x(7,7)  x(7,8)  x(7,9)  x(8,0) 
 x(8,1)  x(8,2)  x(8,3)  x(8,4)  x(8,5)  x(8,6)  x(8,7)  x(8,8)  x(8,9) 
 x(9,0)  x(9,1)  x(9,2)  x(9,3)  x(9,4)  x(9,5)  x(9,6)  x(9,7)  x(9,8) 
 x(9,9) 
Generals
 u(0)  u(1)  u(2)  u(3)  u(4)  u(5)  u(6)  u(7)  u(8)  u(9) 
End
